
Gurobi 9.1.1 (mac64, gurobi_cl) logging started Thu Sep 12 11:16:20 2024

Academic license - for non-commercial use only - expires 2025-02-04
Using license file /Users/berendmarkhorst/gurobi.lic
Set parameter LogFile to value gurobi.log

Gurobi 9.1.1 (mac64, gurobi_cl) logging started Thu Sep 12 11:16:52 2024

Academic license - for non-commercial use only - expires 2025-02-04
Using license file /Users/berendmarkhorst/gurobi.lic
Set parameter LogFile to value gurobi.log
